37 2000
11 197
3 103
7 145
11 145
10 140
10 129
4 177
2 142
4 172
10 172
6 103
5 150
4 135
3 140
10 127
8 135
7 197
9 147
8 119
4 195
7 191
2 171
7 129
8 19
5 136
8 191
6 171
2 127
11 142
8 178
2 150
8 136
7 119
6 147
4 177
11 195
3 178
